c WARNING: for repeatability, setting FPU to use double precision
c Problem Statistics:
c
c [33mBenchmark Information[0m
c Number of variables: 44
c Number of clauses: 67
c Number of literals: 148
c Parse time: 0.00
c
c
c Backbone simplification
c The number of unit literal found is: 3
c Time to realize the backbone simplification: 0.000005
c
c [33mCollect Bi-Partition Procedure[0m
c Time to sort the selector: 0.000014
c Number of input variables computed: 1
c Time to compute the bi-partition: 0.000028
c
c Number of variables forgotten: 5
c Number of iterations: 2
c
c Vivification, total time: 0.000006
c Vivification, number of clauses removed: 18
c Vivification, number of literals removed: 3
c
c Occurrence Elimination, total time: 0.000002
c Occurrence Elimination, number of literals removed: 0
c Time used for the preprocessing step: 0.000019
c
p cnf 44 43
11 0
-29 0
33 0
34 0
35 0
36 0
37 0
38 0
-1 0
-2 0
-3 0
-4 0
-5 0
-6 0
-27 0
-28 0
-43 0
-15 0
16 0
-44 0
-17 0
18 0
-22 0
-25 0
-26 0
-41 0
39 0
9 0
-10 0
-7 0
8 0
-40 0
-30 0
-31 0
-32 0
-13 0
-20 0
-24 0
c The variables forgot
42 0
19 0
23 0
21 0
14 0
c The number of literals is: 0
c The number of variables is: 1
